(set-logic QF_LIA)
(declare-fun x0 () Int)
(declare-fun x1 () Int)
(declare-fun x2 () Int)
(declare-fun x3 () Int)
(declare-fun x4 () Int)
(declare-fun x5 () Int)
(declare-fun x6 () Int)
(declare-fun x7 () Int)
(declare-fun x8 () Int)
(declare-fun x9 () Int)
(declare-fun A0 () Bool)
(declare-fun A1 () Bool)
(declare-fun A2 () Bool)
(declare-fun A3 () Bool)
(declare-fun A4 () Bool)
(declare-fun A5 () Bool)
(declare-fun A6 () Bool)
(declare-fun A7 () Bool)
(declare-fun A8 () Bool)
(declare-fun A9 () Bool)
(assert (let ((.def_0 (not A7))) (let ((.def_1 (or A3 .def_0))) (let ((.def_2 (* 1 x3))) (let ((.def_3 (* 1 x5))) (let ((.def_4 (+ .def_3 .def_2))) (let ((.def_5 (< .def_4 1))) (let ((.def_6 (not A9))) (let ((.def_7 (or .def_6 .def_5))) (let ((.def_8 (and .def_7 .def_1))) (let ((.def_9 (not .def_8))) (let ((.def_10 (* (- 1) x4))) (let ((.def_11 (* 1 x2))) (let ((.def_12 (+ .def_11 .def_10))) (let ((.def_13 (< .def_12 1))) (let ((.def_14 (not .def_13))) (let ((.def_15 (* 1 x6))) (let ((.def_16 (< .def_15 1))) (let ((.def_17 (and .def_16 .def_14))) (let ((.def_18 (not .def_17))) (let ((.def_19 (or A0 A0))) (let ((.def_20 (not .def_19))) (let ((.def_21 (or .def_20 .def_18))) (let ((.def_22 (and .def_21 .def_9))) (let ((.def_23 (not .def_22))) (let ((.def_24 (not A2))) (let ((.def_25 (not .def_16))) (let ((.def_26 (and .def_25 .def_24))) (let ((.def_27 (not .def_26))) (let ((.def_28 (not A6))) (let ((.def_29 (and A2 .def_28))) (let ((.def_30 (not .def_29))) (let ((.def_31 (and .def_30 .def_27))) (let ((.def_32 (not .def_31))) (let ((.def_33 (or .def_28 A5))) (let ((.def_34 (not .def_33))) (let ((.def_35 (< .def_10 (- 1)))) (let ((.def_36 (not .def_35))) (let ((.def_37 (< .def_2 1))) (let ((.def_38 (not .def_37))) (let ((.def_39 (or .def_38 .def_36))) (let ((.def_40 (not .def_39))) (let ((.def_41 (or .def_40 .def_34))) (let ((.def_42 (and .def_41 .def_32))) (let ((.def_43 (not .def_42))) (let ((.def_44 (or .def_43 .def_23))) (let ((.def_45 (* 1 x4))) (let ((.def_46 (+ .def_45 .def_15))) (let ((.def_47 (< .def_46 (- 1)))) (let ((.def_48 (and .def_6 .def_47))) (let ((.def_49 (not .def_48))) (let ((.def_50 (< .def_3 (- 1)))) (let ((.def_51 (and A4 .def_50))) (let ((.def_52 (and .def_51 .def_49))) (let ((.def_53 (* (- 1) x6))) (let ((.def_54 (< .def_53 (- 1)))) (let ((.def_55 (not .def_54))) (let ((.def_56 (and .def_55 A3))) (let ((.def_57 (not .def_56))) (let ((.def_58 (and A6 A5))) (let ((.def_59 (= .def_58 .def_57))) (let ((.def_60 (and .def_59 .def_52))) (let ((.def_61 (not .def_60))) (let ((.def_62 (* (- 1) x5))) (let ((.def_63 (< .def_62 (- 1)))) (let ((.def_64 (not .def_63))) (let ((.def_65 (and A5 .def_64))) (let ((.def_66 (* 1 x0))) (let ((.def_67 (* 1 x7))) (let ((.def_68 (+ .def_67 .def_66))) (let ((.def_69 (< .def_68 1))) (let ((.def_70 (or .def_69 .def_24))) (let ((.def_71 (not .def_70))) (let ((.def_72 (or .def_71 .def_65))) (let ((.def_73 (not .def_72))) (let ((.def_74 (* 1 x8))) (let ((.def_75 (+ .def_74 .def_2))) (let ((.def_76 (< .def_75 1))) (let ((.def_77 (or .def_76 A0))) (let ((.def_78 (not .def_77))) (let ((.def_79 (* (- 1) x3))) (let ((.def_80 (< .def_79 (- 1)))) (let ((.def_81 (and .def_80 A9))) (let ((.def_82 (or .def_81 .def_78))) (let ((.def_83 (= .def_82 .def_73))) (let ((.def_84 (and .def_83 .def_61))) (let ((.def_85 (not .def_84))) (let ((.def_86 (and .def_85 .def_44))) (let ((.def_87 (not .def_86))) (let ((.def_88 (and .def_54 A6))) (let ((.def_89 (= .def_24 A0))) (let ((.def_90 (and .def_89 .def_88))) (let ((.def_91 (* (- 1) x2))) (let ((.def_92 (< .def_91 1))) (let ((.def_93 (not .def_92))) (let ((.def_94 (or A2 .def_93))) (let ((.def_95 (not .def_94))) (let ((.def_96 (* (- 1) x7))) (let ((.def_97 (+ .def_96 .def_3))) (let ((.def_98 (< .def_97 (- 1)))) (let ((.def_99 (and A9 .def_98))) (let ((.def_100 (not .def_99))) (let ((.def_101 (and .def_100 .def_95))) (let ((.def_102 (= .def_101 .def_90))) (let ((.def_103 (+ .def_53 .def_96))) (let ((.def_104 (< .def_103 (- 1)))) (let ((.def_105 (not .def_104))) (let ((.def_106 (or A0 .def_105))) (let ((.def_107 (not .def_106))) (let ((.def_108 (< .def_91 (- 1)))) (let ((.def_109 (not .def_108))) (let ((.def_110 (not A5))) (let ((.def_111 (or .def_110 .def_109))) (let ((.def_112 (not .def_111))) (let ((.def_113 (or .def_112 .def_107))) (let ((.def_114 (not .def_113))) (let ((.def_115 (* 1 x9))) (let ((.def_116 (+ .def_79 .def_115))) (let ((.def_117 (< .def_116 (- 1)))) (let ((.def_118 (and A3 .def_117))) (let ((.def_119 (* (- 1) x8))) (let ((.def_120 (+ .def_119 .def_66))) (let ((.def_121 (< .def_120 (- 1)))) (let ((.def_122 (and .def_121 .def_24))) (let ((.def_123 (or .def_122 .def_118))) (let ((.def_124 (and .def_123 .def_114))) (let ((.def_125 (or .def_124 .def_102))) (let ((.def_126 (not A0))) (let ((.def_127 (not .def_50))) (let ((.def_128 (or .def_127 .def_126))) (let ((.def_129 (not .def_128))) (let ((.def_130 (or A1 .def_110))) (let ((.def_131 (not .def_130))) (let ((.def_132 (or .def_131 .def_129))) (let ((.def_133 (not A3))) (let ((.def_134 (* (- 1) x9))) (let ((.def_135 (< .def_134 (- 1)))) (let ((.def_136 (not .def_135))) (let ((.def_137 (or .def_136 .def_133))) (let ((.def_138 (and A5 .def_36))) (let ((.def_139 (not .def_138))) (let ((.def_140 (= .def_139 .def_137))) (let ((.def_141 (not .def_140))) (let ((.def_142 (or .def_141 .def_132))) (let ((.def_143 (not A8))) (let ((.def_144 (not A4))) (let ((.def_145 (and .def_144 .def_143))) (let ((.def_146 (< .def_67 1))) (let ((.def_147 (or A2 .def_146))) (let ((.def_148 (= .def_147 .def_145))) (let ((.def_149 (not .def_148))) (let ((.def_150 (and A9 A2))) (let ((.def_151 (< .def_45 (- 1)))) (let ((.def_152 (+ .def_91 .def_119))) (let ((.def_153 (< .def_152 (- 1)))) (let ((.def_154 (or .def_153 .def_151))) (let ((.def_155 (or .def_154 .def_150))) (let ((.def_156 (not .def_155))) (let ((.def_157 (or .def_156 .def_149))) (let ((.def_158 (not .def_157))) (let ((.def_159 (and .def_158 .def_142))) (let ((.def_160 (not .def_159))) (let ((.def_161 (or .def_160 .def_125))) (let ((.def_162 (or .def_161 .def_87))) (let ((.def_163 (not .def_162))) (let ((.def_164 (<= x9 1))) (let ((.def_165 (<= 0 x9))) (let ((.def_166 (<= x8 1))) (let ((.def_167 (<= 0 x8))) (let ((.def_168 (<= x7 1))) (let ((.def_169 (<= 0 x7))) (let ((.def_170 (<= x6 1))) (let ((.def_171 (<= 0 x6))) (let ((.def_172 (<= x5 1))) (let ((.def_173 (<= 0 x5))) (let ((.def_174 (<= x4 1))) (let ((.def_175 (<= 0 x4))) (let ((.def_176 (<= x3 1))) (let ((.def_177 (<= 0 x3))) (let ((.def_178 (<= x2 1))) (let ((.def_179 (<= 0 x2))) (let ((.def_180 (<= x1 1))) (let ((.def_181 (<= 0 x1))) (let ((.def_182 (<= x0 1))) (let ((.def_183 (<= 0 x0))) (let ((.def_184 (and .def_183 .def_182 .def_181 .def_180 .def_179 .def_178 .def_177 .def_176 .def_175 .def_174 .def_173 .def_172 .def_171 .def_170 .def_169 .def_168 .def_167 .def_166 .def_165 .def_164 .def_163))) .def_184))))))))))))))))))))))))))))))))))))))))))))))))))))))))))))))))))))))))))))))))))))))))))))))))))))))))))))))))))))))))))))))))))))))))))))))))))))))))))))))))))))))))))))))))))))))))))
(check-sat)
